                                        
   1.00000000000000     
     3.1375000477000001    0.0000000000000000    0.0000000000000000
     0.0000000000000000    4.0587000846999999    0.0000000000000000
     0.0000000000000000    0.0000000000000000    6.9018001556000002
   Te   Cu
     2     2
Direct
  0.5000000000000000  0.0000000000000000  0.2207999970000003
  0.0000000000000000  0.5000000000000000  0.7792000170000009
  0.5000000000000000  0.5000000000000000  0.4543600080000019
  0.0000000000000000  0.0000000000000000  0.5456399919999981
 
  0.00000000E+00  0.00000000E+00  0.00000000E+00
  0.00000000E+00  0.00000000E+00  0.00000000E+00
  0.00000000E+00  0.00000000E+00  0.00000000E+00
  0.00000000E+00  0.00000000E+00  0.00000000E+00
